
Gurobi 12.0.2 (win64) logging started Thu May 29 14:01:51 2025

Set parameter LogFile to value "data/solutions/braunschweig/braunschweig.log"
Gurobi Optimizer version 12.0.2 build v12.0.2rc0 (win64 - Windows 11.0 (26100.2))

CPU model: Intel(R) Core(TM) i5-14600KF, instruction set [SSE2|AVX|AVX2]
Thread count: 14 physical cores, 20 logical processors, using up to 1 threads

Non-default parameters:
TimeLimit  3600
FeasibilityTol  1e-07
IntFeasTol  1e-07
MIPGap  0
Threads  1
LazyConstraints  1

Academic license 2670408 - for non-commercial use only - registered to s6___@uni-bonn.de
Optimize a model with 3478 rows, 4225 columns and 16228 nonzeros
Model fingerprint: 0xc6349ad0
Model has 1 quadratic constraint
Variable types: 3 continuous, 4222 integer (4222 binary)
Coefficient statistics:
  Matrix range     [1e+00, 1e+07]
  QMatrix range    [1e+00, 1e+01]
  Objective range  [1e+00, 1e+00]
  Bounds range     [1e+00, 1e+00]
  RHS range        [1e+00, 1e+00]
Presolve removed 1 rows and 0 columns
Presolve time: 0.01s
Presolved: 3477 rows, 4225 columns, 15480 nonzeros
Presolved model has 1 quadratic constraint(s)
Variable types: 3 continuous, 4222 integer (4222 binary)

Root relaxation: objective 0.000000e+00, 1 iterations, 0.00 seconds (0.00 work units)

    Nodes    |    Current Node    |     Objective Bounds      |     Work
 Expl Unexpl |  Obj  Depth IntInf | Incumbent    BestBd   Gap | It/Node Time

     0     0    0.00000    0    -          -    0.00000      -     -    0s
     0     0    0.00000    0    5          -    0.00000      -     -    0s
H    0     0                       1.9910484    0.00000   100%     -    0s
H    0     0                       1.7896126    0.00000   100%     -    0s
H    0     0                       1.7849964    0.00000   100%     -    0s
H    0     0                       1.0167509    0.00000   100%     -    0s
     0     0    0.00000    0    5    1.01675    0.00000   100%     -    0s
H    0     0                       1.0167509    0.00000   100%     -    0s
     0     0    0.00000    0    5    1.01675    0.00000   100%     -    0s
     0     0    0.00000    0    5    1.01675    0.00000   100%     -    0s
     0     0    0.00000    0    5    1.01675    0.00000   100%     -    0s
     0     0    0.00000    0    5    1.01675    0.00000   100%     -    0s
H    0     0                       1.0058231    0.00000   100%     -    0s
     0     0    0.00000    0    5    1.00582    0.00000   100%     -    0s
     0     2    0.00000    0    5    1.00582    0.00000   100%     -    0s
H  297   291                       1.0049282    0.00000   100%  29.9    0s
   613   370 infeasible  132         1.00493    0.01497  98.5%  63.6    5s
H 1355   159                       1.0033022    0.64206  36.0%  52.7    7s

Cutting planes:
  Cover: 1
  Flow cover: 1
  Zero half: 2
  Mod-K: 1
  RLT: 1

Explored 1576 nodes (79923 simplex iterations) in 7.99 seconds (21.07 work units)
Thread count was 1 (of 20 available processors)

Solution count 7: 1.0033 1.00493 1.00582 ... 1.99105

Optimal solution found (tolerance 0.00e+00)
Best objective 1.003302206711e+00, best bound 1.003302206711e+00, gap 0.0000%

User-callback calls 5245, time in user-callback 0.01 sec
